15
45
77
51
50
44
2
64
40
54
26
65
66
70
22
16
88
94
18
24
38
99
36
11
32
91
98
23
60
62
61
25
81
69
73
68
85
82
95
13
76
33
37
5
52
78
96
39
30
48
100
41
71
14
3
43
46
29
34
83
55
12
27
35
86
20
57
7
9
87
58
93
1
8
42
89
31
80
56
97
4
19
90
49
6
63
47
28
67
92
75
53
79
84
10
72
21
74
59
17
15
